# Solution for model r5_t36_m8_5 Batch Number: 5
# Finished Task: 31 / 36
# Makespan: 613.0, Total Distance: 571.0, Total Time: 1.6532
# R O S F Batch
0 0 15 0.0 0.0 -1
1 1 16 0.0 0.0 -1
2 2 31 0.0 0.0 -1
3 3 10 0.0 0.0 -1
4 4 12 0.0 0.0 -1
5 1 30 273.0 299.0 0
6 4 27 494.0 516.0 3
7 1 14 472.0 503.0 3
8 3 24 464.0 484.0 4
9 2 34 398.0 436.0 0
10 3 8 397.0 436.0 0
11 2 -1 513.0 550.0 4
12 4 25 27.0 62.0 0
13 2 38 63.0 91.0 0
14 1 28 517.0 555.0 3
15 0 33 269.0 293.0 0
16 1 40 141.0 171.0 0
17 1 5 223.0 248.0 0
18 1 35 387.0 410.0 2
19 -1 -1 -1.0 -1.0 2
20 0 21 368.0 407.0 2
21 0 -1 516.0 555.0 3
22 4 6 390.0 429.0 3
23 -1 -1 -1.0 -1.0 1
24 3 -1 510.0 536.0 4
25 4 32 76.0 97.0 0
26 2 9 157.0 177.0 0
27 4 -1 525.0 546.0 4
28 1 -1 582.0 613.0 4
29 -1 -1 -1.0 -1.0 2
30 1 18 316.0 349.0 2
31 2 13 27.0 47.0 0
32 4 36 241.0 280.0 0
33 0 20 311.0 337.0 2
34 2 11 450.0 489.0 3
35 1 7 440.0 461.0 2
36 4 22 321.0 351.0 0
37 -1 -1 -1.0 -1.0 4
38 2 26 106.0 144.0 0
39 -1 -1 -1.0 -1.0 1
40 1 17 179.0 214.0 0
